15,2	0,0	11,5	13,3	0,0	0,0	0,0	0,0	0,0	13,1
10,8	13,3	0,0	19,6	6,0	0,0	0,0	6,6	0,0	0,0
0,0	0,0	13,3	0,0	5,3	9,1	0,0	0,0	16,3	0,0
5,6	0,0	16,1	0,0	0,0	0,0	9,4	0,0	0,0	0,0
0,0	18,3	0,0	19,5	12,3	0,0	0,0	6,1	0,0	0,0
0,0	16,1	12,4	0,0	11,3	11,9	0,0	0,0	15,5	0,0
0,0	8,1	0,0	14,5	0,0	0,0	6,5	0,0	0,0	8,1
9,2	0,0	6,3	0,0	0,0	0,0	0,0	0,0	0,0	15,8
0,0	14,8	0,0	8,4	13,8	0,0	0,0	18,2	0,0	0,0
0,0	0,0	6,7	0,0	0,0	14,0	16,7	0,0	0,0	16,0
									
2,6	3,7	3,3	4,0	2,7	3,3	3,9	3,4	3,4	2,8
